=1
=2
=0IBM ILOG CPLEX   42.1.0 cb854401 Feb 1, 2023           LEG x86 64bit/Linux    
=1
--- GAMS/Cplex licensed for continuous and discrete problems.
=2
=C
=1
=CReading parameter(s) from "/storage/home/ejm6426/scratch/scRBA/parameterization/kapp/datasets/Yu2021_chemoClimNH4_010_using_rtRBA_methods/min_flux_violation/cplex.opt"
=C>>  optcr = 1E-12
=C>>  optca = 1E-12
=C>>  eprhs = 1E-9
=C>> 
=CFinished reading from "/storage/home/ejm6426/scratch/scRBA/parameterization/kapp/datasets/Yu2021_chemoClimNH4_010_using_rtRBA_methods/min_flux_violation/cplex.opt"
=2
=C
=1
--- GMO setup time: 0.00s
=2
=1
--- Space for names approximately 0.48 Mb
=2
=1
--- Use option 'names no' to turn use of names off
=2
=1
--- GMO memory 5.76 Mb (peak 5.84 Mb)
=2
=1
--- Dictionary memory 0.00 Mb
=2
=1
--- Cplex 22.1.1.0 link memory 0.26 Mb (peak 1.90 Mb)
=2
=1
--- Starting Cplex
=2
=C
Version identifier: 22.1.1.0 | 2022-11-28 | 9160aff4d
CPXPARAM_Advance                                 0
CPXPARAM_Threads                                 1
CPXPARAM_MIP_Display                             4
CPXPARAM_MIP_Pool_Capacity                       0
CPXPARAM_Simplex_Limits_Iterations               1000000
CPXPARAM_Simplex_Tolerances_Feasibility          1.0000000000000001e-09
CPXPARAM_TimeLimit                               1000
CPXPARAM_MIP_Tolerances_AbsMIPGap                9.9999999999999998e-13
CPXPARAM_MIP_Tolerances_MIPGap                   9.9999999999999998e-13
Tried aggregator 1 time.
LP Presolve eliminated 2363 rows and 6304 columns.
Aggregator did 620 substitutions.
Reduced LP has 1500 rows, 3758 columns, and 40835 nonzeros.
Presolve time = 0.08 sec. (22.79 ticks)

Iteration log . . .
Iteration:     1   Dual objective     =             0.000000
Perturbation started.
Iteration:   101   Dual objective     =             0.000000
Iteration:   225   Dual objective     =            11.359893
Iteration:   304   Dual objective     =            13.363911
Iteration:   384   Dual objective     =            13.743965
Iteration:   484   Dual objective     =            13.744028
Iteration:   570   Dual objective     =            13.744312
Iteration:   679   Dual objective     =            13.744431
Iteration:   767   Dual objective     =            13.744635
Iteration:   829   Dual objective     =            13.744646
Markowitz threshold set to 0.1
Iteration:   853   Dual objective     =            13.745525
Iteration:   918   Dual objective     =            18.016058
Iteration:   980   Dual objective     =            18.022780
Iteration:  1038   Dual objective     =            18.282258
Iteration:  1120   Dual objective     =            18.282873
Iteration:  1207   Dual objective     =            18.283174
Iteration:  1296   Dual objective     =            18.283303
Iteration:  1389   Dual objective     =            18.283361
Iteration:  1488   Dual objective     =            18.283391
Iteration:  1586   Dual objective     =            18.283404
Iteration:  1689   Dual objective     =            18.283409
Removing perturbation.
Iteration:  1709   Dual objective     =             4.538522
=C
=1
--- LP status (1): optimal.
=2
=1
--- Cplex Time: 0.20sec (det. 109.97 ticks)

=2
=C
=COptimal solution found
=CObjective:            4.538522
=C
